c cksystemsgroup.github.io/unicorn
c CNF contains a total of 583 clauses.
c CNF contains a total of 185 variables.
c CNF clauses cover 1 bad states.
c Variable name mapping (65 names):
c   1: input[bit=0]
c   2: input[bit=0]
c   5: input[bit=1]
c   6: input[bit=1]
c   10: input[bit=2]
c   11: input[bit=2]
c   15: input[bit=3]
c   16: input[bit=3]
c   21: input[bit=4]
c   22: input[bit=4]
c   26: input[bit=5]
c   27: input[bit=5]
c   31: input[bit=6]
c   32: input[bit=6]
c   36: input[bit=7]
c   37: input[bit=7]
c   42: input[bit=8]
c   43: input[bit=8]
c   48: input[bit=9]
c   49: input[bit=9]
c   54: input[bit=10]
c   55: input[bit=10]
c   60: input[bit=11]
c   61: input[bit=11]
c   66: input[bit=12]
c   67: input[bit=12]
c   72: input[bit=13]
c   73: input[bit=13]
c   78: input[bit=14]
c   79: input[bit=14]
c   84: input[bit=15]
c   85: input[bit=15]
c   90: input[bit=16]
c   91: input[bit=16]
c   96: input[bit=17]
c   97: input[bit=17]
c   102: input[bit=18]
c   103: input[bit=18]
c   108: input[bit=19]
c   109: input[bit=19]
c   114: input[bit=20]
c   115: input[bit=20]
c   120: input[bit=21]
c   121: input[bit=21]
c   126: input[bit=22]
c   127: input[bit=22]
c   132: input[bit=23]
c   133: input[bit=23]
c   138: input[bit=24]
c   139: input[bit=24]
c   144: input[bit=25]
c   145: input[bit=25]
c   150: input[bit=26]
c   151: input[bit=26]
c   156: input[bit=27]
c   157: input[bit=27]
c   162: input[bit=28]
c   163: input[bit=28]
c   168: input[bit=29]
c   169: input[bit=29]
c   174: input[bit=30]
c   175: input[bit=30]
c   180: input[bit=31]
c   181: input[bit=31]
c   185: ?
p cnf 185 583
1 2 -3 0
1 -2 3 0
-1 2 3 0
-1 -2 -3 0
-3 -4 0
3 4 0
-1 -2 7 0
1 -7 0
2 -7 0
5 6 7 -8 0
5 6 -7 8 0
5 -6 7 8 0
5 -6 -7 -8 0
-5 6 7 8 0
-5 6 -7 -8 0
-5 -6 7 -8 0
-5 -6 -7 8 0
-4 -8 9 0
4 -9 0
8 -9 0
5 6 -12 0
5 7 -12 0
-6 -7 12 0
6 7 -12 0
-5 -7 12 0
-5 -6 12 0
10 11 12 -13 0
10 11 -12 13 0
10 -11 12 13 0
10 -11 -12 -13 0
-10 11 12 13 0
-10 11 -12 -13 0
-10 -11 12 -13 0
-10 -11 -12 13 0
-9 -13 14 0
9 -14 0
13 -14 0
10 11 -17 0
10 12 -17 0
-11 -12 17 0
11 12 -17 0
-10 -12 17 0
-10 -11 17 0
15 16 17 -18 0
15 16 -17 18 0
15 -16 17 18 0
15 -16 -17 -18 0
-15 16 17 18 0
-15 16 -17 -18 0
-15 -16 17 -18 0
-15 -16 -17 18 0
-18 -19 0
18 19 0
-14 -19 20 0
14 -20 0
19 -20 0
15 16 -23 0
15 17 -23 0
-16 -17 23 0
16 17 -23 0
-15 -17 23 0
-15 -16 23 0
21 22 23 -24 0
21 22 -23 24 0
21 -22 23 24 0
21 -22 -23 -24 0
-21 22 23 24 0
-21 22 -23 -24 0
-21 -22 23 -24 0
-21 -22 -23 24 0
-20 -24 25 0
20 -25 0
24 -25 0
21 22 -28 0
21 23 -28 0
-22 -23 28 0
22 23 -28 0
-21 -23 28 0
-21 -22 28 0
26 27 28 -29 0
26 27 -28 29 0
26 -27 28 29 0
26 -27 -28 -29 0
-26 27 28 29 0
-26 27 -28 -29 0
-26 -27 28 -29 0
-26 -27 -28 29 0
-25 -29 30 0
25 -30 0
29 -30 0
26 27 -33 0
26 28 -33 0
-27 -28 33 0
27 28 -33 0
-26 -28 33 0
-26 -27 33 0
31 32 33 -34 0
31 32 -33 34 0
31 -32 33 34 0
31 -32 -33 -34 0
-31 32 33 34 0
-31 32 -33 -34 0
-31 -32 33 -34 0
-31 -32 -33 34 0
-30 -34 35 0
30 -35 0
34 -35 0
31 32 -38 0
31 33 -38 0
-32 -33 38 0
32 33 -38 0
-31 -33 38 0
-31 -32 38 0
36 37 38 -39 0
36 37 -38 39 0
36 -37 38 39 0
36 -37 -38 -39 0
-36 37 38 39 0
-36 37 -38 -39 0
-36 -37 38 -39 0
-36 -37 -38 39 0
-39 -40 0
39 40 0
-35 -40 41 0
35 -41 0
40 -41 0
36 37 -44 0
36 38 -44 0
-37 -38 44 0
37 38 -44 0
-36 -38 44 0
-36 -37 44 0
42 43 44 -45 0
42 43 -44 45 0
42 -43 44 45 0
42 -43 -44 -45 0
-42 43 44 45 0
-42 43 -44 -45 0
-42 -43 44 -45 0
-42 -43 -44 45 0
-45 -46 0
45 46 0
-41 -46 47 0
41 -47 0
46 -47 0
42 43 -50 0
42 44 -50 0
-43 -44 50 0
43 44 -50 0
-42 -44 50 0
-42 -43 50 0
48 49 50 -51 0
48 49 -50 51 0
48 -49 50 51 0
48 -49 -50 -51 0
-48 49 50 51 0
-48 49 -50 -51 0
-48 -49 50 -51 0
-48 -49 -50 51 0
-51 -52 0
51 52 0
-47 -52 53 0
47 -53 0
52 -53 0
48 49 -56 0
48 50 -56 0
-49 -50 56 0
49 50 -56 0
-48 -50 56 0
-48 -49 56 0
54 55 56 -57 0
54 55 -56 57 0
54 -55 56 57 0
54 -55 -56 -57 0
-54 55 56 57 0
-54 55 -56 -57 0
-54 -55 56 -57 0
-54 -55 -56 57 0
-57 -58 0
57 58 0
-53 -58 59 0
53 -59 0
58 -59 0
54 55 -62 0
54 56 -62 0
-55 -56 62 0
55 56 -62 0
-54 -56 62 0
-54 -55 62 0
60 61 62 -63 0
60 61 -62 63 0
60 -61 62 63 0
60 -61 -62 -63 0
-60 61 62 63 0
-60 61 -62 -63 0
-60 -61 62 -63 0
-60 -61 -62 63 0
-63 -64 0
63 64 0
-59 -64 65 0
59 -65 0
64 -65 0
60 61 -68 0
60 62 -68 0
-61 -62 68 0
61 62 -68 0
-60 -62 68 0
-60 -61 68 0
66 67 68 -69 0
66 67 -68 69 0
66 -67 68 69 0
66 -67 -68 -69 0
-66 67 68 69 0
-66 67 -68 -69 0
-66 -67 68 -69 0
-66 -67 -68 69 0
-69 -70 0
69 70 0
-65 -70 71 0
65 -71 0
70 -71 0
66 67 -74 0
66 68 -74 0
-67 -68 74 0
67 68 -74 0
-66 -68 74 0
-66 -67 74 0
72 73 74 -75 0
72 73 -74 75 0
72 -73 74 75 0
72 -73 -74 -75 0
-72 73 74 75 0
-72 73 -74 -75 0
-72 -73 74 -75 0
-72 -73 -74 75 0
-75 -76 0
75 76 0
-71 -76 77 0
71 -77 0
76 -77 0
72 73 -80 0
72 74 -80 0
-73 -74 80 0
73 74 -80 0
-72 -74 80 0
-72 -73 80 0
78 79 80 -81 0
78 79 -80 81 0
78 -79 80 81 0
78 -79 -80 -81 0
-78 79 80 81 0
-78 79 -80 -81 0
-78 -79 80 -81 0
-78 -79 -80 81 0
-81 -82 0
81 82 0
-77 -82 83 0
77 -83 0
82 -83 0
78 79 -86 0
78 80 -86 0
-79 -80 86 0
79 80 -86 0
-78 -80 86 0
-78 -79 86 0
84 85 86 -87 0
84 85 -86 87 0
84 -85 86 87 0
84 -85 -86 -87 0
-84 85 86 87 0
-84 85 -86 -87 0
-84 -85 86 -87 0
-84 -85 -86 87 0
-87 -88 0
87 88 0
-83 -88 89 0
83 -89 0
88 -89 0
84 85 -92 0
84 86 -92 0
-85 -86 92 0
85 86 -92 0
-84 -86 92 0
-84 -85 92 0
90 91 92 -93 0
90 91 -92 93 0
90 -91 92 93 0
90 -91 -92 -93 0
-90 91 92 93 0
-90 91 -92 -93 0
-90 -91 92 -93 0
-90 -91 -92 93 0
-93 -94 0
93 94 0
-89 -94 95 0
89 -95 0
94 -95 0
90 91 -98 0
90 92 -98 0
-91 -92 98 0
91 92 -98 0
-90 -92 98 0
-90 -91 98 0
96 97 98 -99 0
96 97 -98 99 0
96 -97 98 99 0
96 -97 -98 -99 0
-96 97 98 99 0
-96 97 -98 -99 0
-96 -97 98 -99 0
-96 -97 -98 99 0
-99 -100 0
99 100 0
-95 -100 101 0
95 -101 0
100 -101 0
96 97 -104 0
96 98 -104 0
-97 -98 104 0
97 98 -104 0
-96 -98 104 0
-96 -97 104 0
102 103 104 -105 0
102 103 -104 105 0
102 -103 104 105 0
102 -103 -104 -105 0
-102 103 104 105 0
-102 103 -104 -105 0
-102 -103 104 -105 0
-102 -103 -104 105 0
-105 -106 0
105 106 0
-101 -106 107 0
101 -107 0
106 -107 0
102 103 -110 0
102 104 -110 0
-103 -104 110 0
103 104 -110 0
-102 -104 110 0
-102 -103 110 0
108 109 110 -111 0
108 109 -110 111 0
108 -109 110 111 0
108 -109 -110 -111 0
-108 109 110 111 0
-108 109 -110 -111 0
-108 -109 110 -111 0
-108 -109 -110 111 0
-111 -112 0
111 112 0
-107 -112 113 0
107 -113 0
112 -113 0
108 109 -116 0
108 110 -116 0
-109 -110 116 0
109 110 -116 0
-108 -110 116 0
-108 -109 116 0
114 115 116 -117 0
114 115 -116 117 0
114 -115 116 117 0
114 -115 -116 -117 0
-114 115 116 117 0
-114 115 -116 -117 0
-114 -115 116 -117 0
-114 -115 -116 117 0
-117 -118 0
117 118 0
-113 -118 119 0
113 -119 0
118 -119 0
114 115 -122 0
114 116 -122 0
-115 -116 122 0
115 116 -122 0
-114 -116 122 0
-114 -115 122 0
120 121 122 -123 0
120 121 -122 123 0
120 -121 122 123 0
120 -121 -122 -123 0
-120 121 122 123 0
-120 121 -122 -123 0
-120 -121 122 -123 0
-120 -121 -122 123 0
-123 -124 0
123 124 0
-119 -124 125 0
119 -125 0
124 -125 0
120 121 -128 0
120 122 -128 0
-121 -122 128 0
121 122 -128 0
-120 -122 128 0
-120 -121 128 0
126 127 128 -129 0
126 127 -128 129 0
126 -127 128 129 0
126 -127 -128 -129 0
-126 127 128 129 0
-126 127 -128 -129 0
-126 -127 128 -129 0
-126 -127 -128 129 0
-129 -130 0
129 130 0
-125 -130 131 0
125 -131 0
130 -131 0
126 127 -134 0
126 128 -134 0
-127 -128 134 0
127 128 -134 0
-126 -128 134 0
-126 -127 134 0
132 133 134 -135 0
132 133 -134 135 0
132 -133 134 135 0
132 -133 -134 -135 0
-132 133 134 135 0
-132 133 -134 -135 0
-132 -133 134 -135 0
-132 -133 -134 135 0
-135 -136 0
135 136 0
-131 -136 137 0
131 -137 0
136 -137 0
132 133 -140 0
132 134 -140 0
-133 -134 140 0
133 134 -140 0
-132 -134 140 0
-132 -133 140 0
138 139 140 -141 0
138 139 -140 141 0
138 -139 140 141 0
138 -139 -140 -141 0
-138 139 140 141 0
-138 139 -140 -141 0
-138 -139 140 -141 0
-138 -139 -140 141 0
-141 -142 0
141 142 0
-137 -142 143 0
137 -143 0
142 -143 0
138 139 -146 0
138 140 -146 0
-139 -140 146 0
139 140 -146 0
-138 -140 146 0
-138 -139 146 0
144 145 146 -147 0
144 145 -146 147 0
144 -145 146 147 0
144 -145 -146 -147 0
-144 145 146 147 0
-144 145 -146 -147 0
-144 -145 146 -147 0
-144 -145 -146 147 0
-147 -148 0
147 148 0
-143 -148 149 0
143 -149 0
148 -149 0
144 145 -152 0
144 146 -152 0
-145 -146 152 0
145 146 -152 0
-144 -146 152 0
-144 -145 152 0
150 151 152 -153 0
150 151 -152 153 0
150 -151 152 153 0
150 -151 -152 -153 0
-150 151 152 153 0
-150 151 -152 -153 0
-150 -151 152 -153 0
-150 -151 -152 153 0
-153 -154 0
153 154 0
-149 -154 155 0
149 -155 0
154 -155 0
150 151 -158 0
150 152 -158 0
-151 -152 158 0
151 152 -158 0
-150 -152 158 0
-150 -151 158 0
156 157 158 -159 0
156 157 -158 159 0
156 -157 158 159 0
156 -157 -158 -159 0
-156 157 158 159 0
-156 157 -158 -159 0
-156 -157 158 -159 0
-156 -157 -158 159 0
-159 -160 0
159 160 0
-155 -160 161 0
155 -161 0
160 -161 0
156 157 -164 0
156 158 -164 0
-157 -158 164 0
157 158 -164 0
-156 -158 164 0
-156 -157 164 0
162 163 164 -165 0
162 163 -164 165 0
162 -163 164 165 0
162 -163 -164 -165 0
-162 163 164 165 0
-162 163 -164 -165 0
-162 -163 164 -165 0
-162 -163 -164 165 0
-165 -166 0
165 166 0
-161 -166 167 0
161 -167 0
166 -167 0
162 163 -170 0
162 164 -170 0
-163 -164 170 0
163 164 -170 0
-162 -164 170 0
-162 -163 170 0
168 169 170 -171 0
168 169 -170 171 0
168 -169 170 171 0
168 -169 -170 -171 0
-168 169 170 171 0
-168 169 -170 -171 0
-168 -169 170 -171 0
-168 -169 -170 171 0
-171 -172 0
171 172 0
-167 -172 173 0
167 -173 0
172 -173 0
168 169 -176 0
168 170 -176 0
-169 -170 176 0
169 170 -176 0
-168 -170 176 0
-168 -169 176 0
174 175 176 -177 0
174 175 -176 177 0
174 -175 176 177 0
174 -175 -176 -177 0
-174 175 176 177 0
-174 175 -176 -177 0
-174 -175 176 -177 0
-174 -175 -176 177 0
-177 -178 0
177 178 0
-173 -178 179 0
173 -179 0
178 -179 0
174 175 -182 0
174 176 -182 0
-175 -176 182 0
175 176 -182 0
-174 -176 182 0
-174 -175 182 0
180 181 182 -183 0
180 181 -182 183 0
180 -181 182 183 0
180 -181 -182 -183 0
-180 181 182 183 0
-180 181 -182 -183 0
-180 -181 182 -183 0
-180 -181 -182 183 0
-183 -184 0
183 184 0
-179 -184 185 0
179 -185 0
184 -185 0
185 0
